p edge 743 708
e 1 2
e 1 3
e 1 4
e 1 5
e 1 6
e 1 7
e 1 8
e 1 9
e 1 10
e 1 11
e 1 12
e 1 13
e 1 14
e 1 15
e 1 16
e 1 17
e 1 18
e 19 20
e 19 21
e 19 22
e 19 23
e 19 24
e 19 25
e 19 26
e 19 27
e 19 28
e 19 29
e 19 30
e 19 31
e 19 32
e 19 33
e 19 34
e 19 35
e 19 36
e 19 37
e 19 38
e 19 39
e 40 41
e 40 42
e 40 43
e 40 44
e 40 45
e 40 46
e 40 47
e 40 48
e 40 49
e 40 50
e 40 51
e 40 52
e 40 53
e 40 54
e 40 55
e 40 56
e 40 57
e 40 58
e 40 59
e 40 60
e 40 61
e 40 62
e 40 63
e 40 64
e 40 65
e 40 66
e 40 67
e 68 69
e 68 70
e 68 71
e 68 72
e 68 73
e 68 74
e 68 75
e 68 76
e 68 77
e 68 78
e 68 79
e 68 80
e 68 81
e 68 82
e 68 83
e 68 84
e 68 85
e 86 87
e 86 88
e 86 89
e 86 90
e 86 91
e 86 92
e 86 93
e 86 94
e 86 95
e 86 96
e 86 97
e 98 99
e 98 100
e 98 101
e 98 102
e 98 103
e 98 104
e 98 105
e 98 106
e 98 107
e 98 108
e 98 109
e 98 110
e 98 111
e 98 112
e 98 113
e 98 114
e 98 115
e 116 117
e 116 118
e 116 119
e 116 120
e 116 121
e 116 122
e 116 123
e 116 124
e 116 125
e 116 126
e 116 127
e 116 128
e 116 129
e 116 130
e 116 131
e 116 132
e 116 133
e 116 134
e 116 135
e 116 136
e 137 138
e 137 139
e 137 140
e 137 141
e 137 142
e 137 143
e 137 144
e 137 145
e 137 146
e 137 147
e 137 148
e 137 149
e 137 150
e 137 151
e 137 152
e 137 153
e 137 154
e 155 156
e 155 157
e 155 158
e 155 159
e 155 160
e 155 161
e 155 162
e 155 163
e 155 164
e 155 165
e 155 166
e 155 167
e 155 168
e 155 169
e 155 170
e 155 171
e 155 172
e 155 173
e 155 174
e 155 175
e 155 176
e 177 178
e 177 179
e 177 180
e 177 181
e 177 182
e 177 183
e 177 184
e 177 185
e 177 186
e 177 187
e 177 188
e 177 189
e 177 190
e 177 191
e 177 192
e 177 193
e 177 194
e 177 195
e 177 196
e 177 197
e 177 198
e 177 199
e 177 200
e 177 201
e 177 202
e 177 203
e 204 205
e 204 206
e 204 207
e 204 208
e 204 209
e 204 210
e 204 211
e 204 212
e 204 213
e 204 214
e 204 215
e 204 216
e 204 217
e 204 218
e 204 219
e 204 220
e 204 221
e 204 222
e 204 223
e 204 224
e 204 225
e 204 226
e 204 227
e 228 229
e 228 230
e 228 231
e 228 232
e 228 233
e 228 234
e 228 235
e 228 236
e 228 237
e 228 238
e 228 239
e 228 240
e 228 241
e 242 243
e 242 244
e 242 245
e 242 246
e 242 247
e 242 248
e 242 249
e 242 250
e 242 251
e 242 252
e 242 253
e 242 254
e 255 256
e 255 257
e 255 258
e 255 259
e 255 260
e 255 261
e 255 262
e 255 263
e 255 264
e 255 265
e 255 266
e 255 267
e 255 268
e 255 269
e 255 270
e 271 272
e 271 273
e 271 274
e 271 275
e 271 276
e 271 277
e 271 278
e 271 279
e 271 280
e 271 281
e 271 282
e 283 284
e 283 285
e 283 286
e 283 287
e 283 288
e 283 289
e 283 290
e 283 291
e 283 292
e 283 293
e 283 294
e 283 295
e 283 296
e 283 297
e 283 298
e 283 299
e 283 300
e 283 301
e 283 302
e 283 303
e 283 304
e 283 305
e 306 307
e 306 308
e 306 309
e 306 310
e 306 311
e 306 312
e 306 313
e 306 314
e 306 315
e 306 316
e 306 317
e 306 318
e 306 319
e 306 320
e 306 321
e 306 322
e 306 323
e 306 324
e 306 325
e 306 326
e 306 327
e 306 328
e 329 330
e 329 331
e 329 332
e 329 333
e 329 334
e 329 335
e 329 336
e 329 337
e 329 338
e 329 339
e 329 340
e 329 341
e 329 342
e 329 343
e 329 344
e 329 345
e 329 346
e 329 347
e 329 348
e 329 349
e 329 350
e 329 351
e 329 352
e 329 353
e 329 354
e 329 355
e 329 356
e 357 358
e 357 359
e 357 360
e 357 361
e 357 362
e 357 363
e 357 364
e 357 365
e 357 366
e 357 367
e 357 368
e 357 369
e 357 370
e 357 371
e 357 372
e 357 373
e 357 374
e 357 375
e 357 376
e 357 377
e 357 378
e 379 380
e 379 381
e 379 382
e 379 383
e 379 384
e 379 385
e 379 386
e 379 387
e 379 388
e 379 389
e 379 390
e 379 391
e 379 392
e 379 393
e 379 394
e 379 395
e 379 396
e 379 397
e 379 398
e 379 399
e 379 400
e 379 401
e 379 402
e 379 403
e 379 404
e 379 405
e 379 406
e 407 408
e 407 409
e 407 410
e 407 411
e 407 412
e 407 413
e 407 414
e 407 415
e 407 416
e 407 417
e 407 418
e 407 419
e 407 420
e 407 421
e 407 422
e 407 423
e 424 425
e 424 426
e 424 427
e 424 428
e 424 429
e 424 430
e 424 431
e 424 432
e 424 433
e 424 434
e 424 435
e 424 436
e 424 437
e 424 438
e 424 439
e 424 440
e 424 441
e 424 442
e 424 443
e 424 444
e 445 446
e 445 447
e 445 448
e 445 449
e 445 450
e 445 451
e 445 452
e 445 453
e 445 454
e 445 455
e 445 456
e 445 457
e 445 458
e 445 459
e 445 460
e 445 461
e 445 462
e 445 463
e 445 464
e 465 466
e 465 467
e 465 468
e 465 469
e 465 470
e 465 471
e 465 472
e 465 473
e 465 474
e 465 475
e 465 476
e 465 477
e 465 478
e 465 479
e 465 480
e 465 481
e 482 483
e 482 484
e 482 485
e 482 486
e 482 487
e 482 488
e 482 489
e 482 490
e 482 491
e 482 492
e 482 493
e 482 494
e 482 495
e 482 496
e 482 497
e 482 498
e 482 499
e 482 500
e 482 501
e 502 503
e 502 504
e 502 505
e 502 506
e 502 507
e 502 508
e 502 509
e 502 510
e 502 511
e 502 512
e 502 513
e 502 514
e 502 515
e 502 516
e 502 517
e 502 518
e 502 519
e 502 520
e 502 521
e 502 522
e 502 523
e 502 524
e 502 525
e 502 526
e 527 528
e 527 529
e 527 530
e 527 531
e 527 532
e 527 533
e 527 534
e 527 535
e 527 536
e 527 537
e 527 538
e 527 539
e 540 541
e 540 542
e 540 543
e 540 544
e 540 545
e 540 546
e 540 547
e 540 548
e 540 549
e 540 550
e 540 551
e 540 552
e 540 553
e 540 554
e 540 555
e 540 556
e 540 557
e 540 558
e 540 559
e 540 560
e 540 561
e 540 562
e 540 563
e 540 564
e 540 565
e 540 566
e 540 567
e 540 568
e 540 569
e 570 571
e 570 572
e 570 573
e 570 574
e 570 575
e 570 576
e 570 577
e 570 578
e 570 579
e 570 580
e 570 581
e 582 583
e 582 584
e 582 585
e 582 586
e 582 587
e 582 588
e 582 589
e 582 590
e 582 591
e 582 592
e 582 593
e 582 594
e 582 595
e 582 596
e 582 597
e 582 598
e 582 599
e 582 600
e 582 601
e 582 602
e 582 603
e 582 604
e 582 605
e 582 606
e 582 607
e 582 608
e 582 609
e 582 610
e 611 612
e 611 613
e 611 614
e 611 615
e 611 616
e 611 617
e 611 618
e 611 619
e 611 620
e 611 621
e 611 622
e 611 623
e 611 624
e 611 625
e 611 626
e 611 627
e 611 628
e 611 629
e 611 630
e 611 631
e 611 632
e 611 633
e 611 634
e 611 635
e 611 636
e 611 637
e 611 638
e 611 639
e 611 640
e 641 642
e 641 643
e 641 644
e 641 645
e 641 646
e 641 647
e 641 648
e 641 649
e 641 650
e 641 651
e 641 652
e 641 653
e 641 654
e 641 655
e 641 656
e 641 657
e 641 658
e 641 659
e 660 661
e 660 662
e 660 663
e 660 664
e 660 665
e 660 666
e 660 667
e 660 668
e 660 669
e 660 670
e 660 671
e 660 672
e 660 673
e 660 674
e 660 675
e 660 676
e 660 677
e 660 678
e 660 679
e 660 680
e 660 681
e 660 682
e 660 683
e 660 684
e 660 685
e 660 686
e 660 687
e 660 688
e 660 689
e 660 690
e 691 692
e 691 693
e 691 694
e 691 695
e 691 696
e 691 697
e 691 698
e 691 699
e 691 700
e 691 701
e 691 702
e 691 703
e 691 704
e 691 705
e 691 706
e 691 707
e 691 708
e 691 709
e 691 710
e 691 711
e 691 712
e 691 713
e 691 714
e 691 715
e 691 716
e 691 717
e 691 718
e 691 719
e 720 721
e 720 722
e 720 723
e 720 724
e 720 725
e 720 726
e 720 727
e 720 728
e 720 729
e 720 730
e 720 731
e 720 732
e 720 733
e 720 734
e 720 735
e 720 736
e 720 737
e 720 738
e 720 739
e 720 740
e 720 741
e 720 742
e 720 743
